     Program PWSCF v.7.4.1 starts on  9Sep2025 at 17:57:24

     Reading input from graphene_relax.in

     Current dimensions of program PWSCF are:
     Max number of different atomic species (ntypx) = 10
     Max number of k-points (npk) =  40000
     Max angular momentum in pseudopotentials (lmaxx) =  4
     file C.pbe-n-kjpaw_psl.1.0.0.UPF: wavefunction(s)  2S 2P renormalized

     Using Slab Decomposition

     bravais-lattice index     =            4
     lattice parameter (alat)  =       4.6540  a.u.
     unit-cell volume          =     523.7946 (a.u.)^3
     number of atoms/cell      =            2
     number of atomic types    =            1
     number of electrons       =         8.00
     number of Kohn-Sham states=            4
     kinetic-energy cutoff     =      45.0000  Ry
     charge density cutoff     =     450.0000  Ry
     scf convergence threshold =      1.0E-08
     mixing beta               =       0.7000
     number of iterations used =            8  plain     mixing
     energy convergence thresh.=      1.0E-06
     force convergence thresh. =      1.0E-05
     press convergence thresh. =      5.0E-01
     Exchange-correlation= SLA  PW   PBX  PBC
                           (   1   4   3   4   0   0   0)
     nstep                     =           50

     celldm(1)=   4.654000  celldm(2)=   0.000000  celldm(3)=   6.000000
     celldm(4)=   0.000000  celldm(5)=   0.000000  celldm(6)=   0.000000

     crystal axes: (cart. coord. in units of alat)
               a(1) = (   1.000000   0.000000   0.000000 )
               a(2) = (  -0.500000   0.866025   0.000000 )
               a(3) = (   0.000000   0.000000   6.000000 )

     reciprocal axes: (cart. coord. in units 2 pi/alat)
               b(1) = (  1.000000  0.577350 -0.000000 )
               b(2) = (  0.000000  1.154701  0.000000 )
               b(3) = (  0.000000 -0.000000  0.166667 )

     PseudoPot. # 1 for C  read from file:
     ../../pseudos/C.pbe-n-kjpaw_psl.1.0.0.UPF
     MD5 check sum: 5d2aebdfa2cae82b50a7e79e9516da0f
     Pseudo is Projector augmented-wave + core cor, Zval =  4.0
     Generated using "atomic" code by A. Dal Corso  v.5.1
     Shape of augmentation charge: PSQ
     Using radial grid of 1073 points,  4 beta functions with:
                l(1) =   0
                l(2) =   0
                l(3) =   1
                l(4) =   1
     Q(r) pseudized with 0 coefficients

     atomic species   valence    mass     pseudopotential
     C                 4.00    12.01070     C ( 1.00)

     24 Sym. Ops., with inversion, found (12 have fractional translation)

   Cartesian axes

     site n.     atom                  positions (alat units)
         1        C      tau(   1) = (   0.0000000   0.0000000   0.0000000  )
         2        C      tau(   2) = (   0.0000000   0.5773503   0.0000000  )

     number of k points=    12
                       cart. coord. in units 2pi/alat
        k(    1) = (   0.0000000   0.0000000   0.0000000), wk =   0.0246914
        k(    2) = (   0.0000000   0.1283001   0.0000000), wk =   0.1481481
        k(    3) = (   0.0000000   0.2566001   0.0000000), wk =   0.1481481
        k(    4) = (   0.0000000   0.3849002   0.0000000), wk =   0.1481481
        k(    5) = (   0.0000000   0.5132002   0.0000000), wk =   0.1481481
        k(    6) = (   0.1111111   0.1924501   0.0000000), wk =   0.1481481
        k(    7) = (   0.1111111   0.3207501   0.0000000), wk =   0.2962963
        k(    8) = (   0.1111111   0.4490502   0.0000000), wk =   0.2962963
        k(    9) = (   0.1111111   0.5773503   0.0000000), wk =   0.1481481
        k(   10) = (   0.2222222   0.3849002   0.0000000), wk =   0.1481481
        k(   11) = (   0.2222222   0.5132002   0.0000000), wk =   0.2962963
        k(   12) = (   0.3333333   0.5773503   0.0000000), wk =   0.0493827

     Initial potential from superposition of free atoms

     starting charge       7.9999, renormalised to       8.0000

     negative rho (up, down):  1.033E-05 0.000E+00
     Starting wfcs are    8 randomized atomic wfcs

     Self-consistent Calculation

     iteration #  1     ecut=    45.00 Ry     beta= 0.70
     Davidson diagonalization with overlap
     ethr =  1.00E-02,  avg # of iterations =  2.0

     negative rho (up, down):  2.270E-05 0.000E+00

     total energy              =     -36.86063149 Ry
     estimated scf accuracy    <       0.18939600 Ry

[...]

     End of self-consistent calculation

          k = 0.0000 0.0000 0.0000 (  2603 PWs)   bands (ev):

   -21.2246  -9.3129  -4.7168  -4.7168

[...]

     highest occupied level (ev):    -1.6634

!    total energy              =     -36.88574424 Ry
     total all-electron energy =      -152.413940 Ry
     estimated scf accuracy    <          1.6E-09 Ry

     The total energy is the sum of the following terms:
     one-electron contribution =    -154.20773007 Ry
     hartree contribution      =      78.73922603 Ry
     xc contribution           =      -9.27932002 Ry
     ewald contribution        =      60.19597803 Ry
     one-center paw contrib.   =     -12.33389821 Ry

     convergence has been achieved in   6 iterations

[...]

     Forces acting on atoms (cartesian axes, Ry/au):

     atom    1 type  1   force =     0.00000000    0.00000000    0.00000000
     atom    2 type  1   force =     0.00000000   -0.00000000    0.00000000

     Total force =     0.000000     Total SCF correction =     0.000000

     Computing stress (Cartesian axis) and pressure

     negative rho (up, down):  4.505E-05 0.000E+00
          total   stress  (Ry/bohr**3)                   (kbar)     P=        3.27
   0.00003472   0.00000000   0.00000000            5.11        0.00        0.00
   0.00000000   0.00003472  -0.00000000            0.00        5.11       -0.00
   0.00000000  -0.00000000  -0.00000275            0.00       -0.00       -0.41

     BFGS Geometry Optimization
     Energy error            =      3.2E-05 Ry
     Gradient error          =      1.8E-24 Ry/Bohr
     Cell gradient error     =      5.1E+00 kbar

     number of scf cycles    =   1
     number of bfgs steps    =   0

     enthalpy           new  =     -36.8857442446 Ry

     new trust radius        =       0.0039734652 bohr
ibrav =      4
 celldm(1) =      4.65804004
 celldm(3) =      5.99438317
Input lattice vectors:
     1.00086808    -0.00000000    -0.00000000
    -0.50043404     0.86677718    -0.00000000
     0.00000000    -0.00000000     5.99958676
New lattice vectors in INITIAL alat:
     1.00086808     0.00000000     0.00000000
    -0.50043404     0.86677718     0.00000000
     0.00000000     0.00000000     5.99958676
New lattice vectors in NEW alat (for information only):
     1.00000000     0.00000000     0.00000000
    -0.50000000     0.86602540     0.00000000
     0.00000000     0.00000000     5.99438317
Discrepancy in bohr =     0.000000    0.000000    0.000000

Atomic positions rescaled with new alat:
C                0.0000000000        0.0000000000        0.0000000000
C                0.0000000000        0.5773503000        0.0000000000
     new conv_thr            =       0.0000000100 Ry

     new unit-cell volume =    524.66825 a.u.^3 (    77.74781 Ang^3 )
     density =      0.51305 g/cm^3

CELL_PARAMETERS (alat=  4.65400000)
   1.000868078   0.000000000   0.000000000
  -0.500434039   0.866777182   0.000000000
   0.000000000   0.000000000   5.999586761

ATOMIC_POSITIONS (alat)
C                0.0000000000        0.0000000000        0.0000000000
C                0.0000000000        0.5778514853        0.0000000000

     Writing config-only to output data dir ./tmp/graphene.save/ :
     XML data file
     NEW-OLD atomic charge density approx. for the potential
     New effective cutoffs (rho, wfc):  449.85   44.97

[...]

     Threshold (ethr) on eigenvalues was too large:
     Diagonalizing with lowered threshold

     Davidson diagonalization with overlap
     ethr =  2.30E-08,  avg # of iterations =  1.1

[...]

     Energy error            =      2.4E-05 Ry
     Gradient error          =      4.5E-24 Ry/Bohr
     Cell gradient error     =      2.6E+00 kbar

[...]

     enthalpy           old  =     -36.8857442446 Ry
     enthalpy           new  =     -36.8857682474 Ry

     CASE: enthalpy          _new < enthalpy          _old

[...]

     Energy error            =      8.9E-06 Ry
     Gradient error          =      2.5E-23 Ry/Bohr
     Cell gradient error     =      4.0E-01 kbar

     number of scf cycles    =   3
     number of bfgs steps    =   2

     enthalpy           old  =     -36.8857682474 Ry
     enthalpy           new  =     -36.8857771299 Ry

     CASE: enthalpy          _new < enthalpy          _old

     new trust radius        =       0.0003213382 bohr
ibrav =      4
 celldm(1) =      4.66241200
 celldm(3) =      5.98753771
Input lattice vectors:
     1.00180748    -0.00000000    -0.00000000
    -0.50090374     0.86759073    -0.00000000
     0.00000000     0.00000000     5.99836005
New lattice vectors in INITIAL alat:
     1.00180748     0.00000000     0.00000000
    -0.50090374     0.86759073     0.00000000
     0.00000000     0.00000000     5.99836005
New lattice vectors in NEW alat (for information only):
     1.00000000     0.00000000     0.00000000
    -0.50000000     0.86602540     0.00000000
     0.00000000     0.00000000     5.98753771
Discrepancy in bohr =     0.000000    0.000000    0.000000

Atomic positions rescaled with new alat:
C                0.0000000000        0.0000000000        0.0000000000
C                0.0000000000        0.5773503000        0.0000000000
     new conv_thr            =            1.0E-10 Ry

     new unit-cell volume =    525.54612 a.u.^3 (    77.87790 Ang^3 )
     density =      0.51219 g/cm^3

[...]

ATOMIC_POSITIONS (alat)
C                0.0000000000        0.0000000000        0.0000000000
C                0.0000000000        0.5783938477        0.0000000000

     Writing config-only to output data dir ./tmp/graphene.save/ :
     XML data file
     NEW-OLD atomic charge density approx. for the potential
     New effective cutoffs (rho, wfc):  450.03   44.96

[...]

     Threshold (ethr) on eigenvalues was too large:
     Diagonalizing with lowered threshold

     Davidson diagonalization with overlap
     ethr =  5.58E-12,  avg # of iterations =  2.7

[...]

     Energy error            =      9.8E-08 Ry
     Gradient error          =      1.2E-23 Ry/Bohr
     Cell gradient error     =      3.9E-01 kbar
ibrav =      4
 celldm(1) =      4.66241200
 celldm(3) =      5.98753771
Input lattice vectors:
     1.00180748     0.00000000     0.00000000
    -0.50090374     0.86759073     0.00000000
     0.00000000     0.00000000     5.99836005
New lattice vectors in INITIAL alat:
     1.00180748     0.00000000     0.00000000
    -0.50090374     0.86759073     0.00000000
     0.00000000     0.00000000     5.99836005
New lattice vectors in NEW alat (for information only):
     1.00000000     0.00000000     0.00000000
    -0.50000000     0.86602540     0.00000000
     0.00000000     0.00000000     5.98753771
Discrepancy in bohr =     0.000000    0.000000    0.000000

Atomic positions rescaled with new alat:
C                0.0000000000        0.0000000000        0.0000000000
C                0.0000000000        0.5773503000        0.0000000000

     bfgs converged in   4 scf cycles and   3 bfgs steps
     (criteria: energy <  1.0E-06 Ry, force <  1.0E-05 Ry/Bohr, cell <  5.0E-01 kbar)

     End of BFGS Geometry Optimization

     Final enthalpy           =     -36.8857772283 Ry

     File ./tmp/graphene.bfgs deleted, as requested
Begin final coordinates
     new unit-cell volume =    525.54612 a.u.^3 (    77.87790 Ang^3 )
     density =      0.51219 g/cm^3

CELL_PARAMETERS (alat=  4.65400000)
   1.001807478   0.000000000   0.000000000
  -0.500903739   0.867590725   0.000000000
   0.000000000   0.000000000   5.998360053

ATOMIC_POSITIONS (alat)
C                0.0000000000        0.0000000000        0.0000000000
C                0.0000000000        0.5783938477        0.0000000000
End final coordinates

     Writing config-only to output data dir ./tmp/graphene.save/ :
     XML data file

     Final scf calculation at the relaxed structure.
     The G-vectors are recalculated for the final unit cell
     Results may differ from those at the preceding step.

     Using Slab Decomposition

     bravais-lattice index     =            4
     lattice parameter (alat)  =       4.6540  a.u.
     unit-cell volume          =     525.5461 (a.u.)^3
     number of atoms/cell      =            2
     number of atomic types    =            1
     number of electrons       =         8.00
     number of Kohn-Sham states=            4
     kinetic-energy cutoff     =      45.0000  Ry
     charge density cutoff     =     450.0000  Ry
     scf convergence threshold =      1.0E-10
     mixing beta               =       0.7000
     number of iterations used =            8  plain     mixing
     press convergence thresh. =      5.0E-01
     Exchange-correlation= SLA  PW   PBX  PBC
                           (   1   4   3   4   0   0   0)

     celldm(1)=   4.654000  celldm(2)=   0.000000  celldm(3)=   6.000000
     celldm(4)=   0.000000  celldm(5)=   0.000000  celldm(6)=   0.000000

     crystal axes: (cart. coord. in units of alat)
               a(1) = (   1.001807   0.000000   0.000000 )
               a(2) = (  -0.500904   0.867591   0.000000 )
               a(3) = (   0.000000   0.000000   5.998360 )

     reciprocal axes: (cart. coord. in units 2 pi/alat)
               b(1) = (  0.998196  0.576309 -0.000000 )
               b(2) = (  0.000000  1.152617  0.000000 )
               b(3) = (  0.000000 -0.000000  0.166712 )

     PseudoPot. # 1 for C  read from file:
     ../../pseudos/C.pbe-n-kjpaw_psl.1.0.0.UPF
     MD5 check sum: 5d2aebdfa2cae82b50a7e79e9516da0f
     Pseudo is Projector augmented-wave + core cor, Zval =  4.0
     Generated using "atomic" code by A. Dal Corso  v.5.1
     Shape of augmentation charge: PSQ
     Using radial grid of 1073 points,  4 beta functions with:
                l(1) =   0
                l(2) =   0
                l(3) =   1
                l(4) =   1
     Q(r) pseudized with 0 coefficients

     atomic species   valence    mass     pseudopotential
     C                 4.00    12.01070     C ( 1.00)

     24 Sym. Ops., with inversion, found (12 have fractional translation)

   Cartesian axes

     site n.     atom                  positions (alat units)
         1        C      tau(   1) = (   0.0000000   0.0000000   0.0000000  )
         2        C      tau(   2) = (   0.0000000   0.5783938   0.0000000  )

     number of k points=    12
                       cart. coord. in units 2pi/alat
        k(    1) = (   0.0000000   0.0000000   0.0000000), wk =   0.0246914
        k(    2) = (   0.0000000   0.1280686   0.0000000), wk =   0.1481481
        k(    3) = (   0.0000000   0.2561372   0.0000000), wk =   0.1481481
        k(    4) = (   0.0000000   0.3842057   0.0000000), wk =   0.1481481
        k(    5) = (   0.0000000   0.5122743   0.0000000), wk =   0.1481481
        k(    6) = (   0.1109106   0.1921029   0.0000000), wk =   0.1481481
        k(    7) = (   0.1109106   0.3201714   0.0000000), wk =   0.2962963
        k(    8) = (   0.1109106   0.4482400   0.0000000), wk =   0.2962963
        k(    9) = (   0.1109106   0.5763086   0.0000000), wk =   0.1481481
        k(   10) = (   0.2218213   0.3842057   0.0000000), wk =   0.1481481
        k(   11) = (   0.2218213   0.5122743   0.0000000), wk =   0.2962963
        k(   12) = (   0.3327319   0.5763086   0.0000000), wk =   0.0493827

     Initial potential from superposition of free atoms

     starting charge       7.9999, renormalised to       8.0000

     negative rho (up, down):  1.024E-05 0.000E+00
     Starting wfcs are    8 randomized atomic wfcs

     Self-consistent Calculation

[...]

     total energy              =     -36.88578181 Ry
     estimated scf accuracy    <          2.8E-10 Ry

     iteration #  8     ecut=    45.00 Ry     beta= 0.70
     Davidson diagonalization with overlap
     ethr =  3.51E-12,  avg # of iterations =  2.2

[...]

     End of self-consistent calculation

[...]

          k = 0.3327 0.5763 0.0000 (  2733 PWs)   bands (ev):

   -14.2909 -14.2909 -12.2461  -1.6844

     highest occupied level (ev):    -1.6844

!    total energy              =     -36.88578181 Ry
     total all-electron energy =      -152.413977 Ry
     estimated scf accuracy    <          7.2E-11 Ry

     The total energy is the sum of the following terms:
     one-electron contribution =    -153.58319916 Ry
     hartree contribution      =      78.42164254 Ry
     xc contribution           =      -9.27119854 Ry
     ewald contribution        =      59.88051691 Ry
     one-center paw contrib.   =     -12.33354357 Ry

     convergence has been achieved in   8 iterations

     negative rho (up, down):  4.489E-05 0.000E+00

     Forces acting on atoms (cartesian axes, Ry/au):

     atom    1 type  1   force =     0.00000000    0.00000000    0.00000000
     atom    2 type  1   force =     0.00000000   -0.00000000    0.00000000

     Total force =     0.000000     Total SCF correction =     0.000000

     Computing stress (Cartesian axis) and pressure

     negative rho (up, down):  4.489E-05 0.000E+00
          total   stress  (Ry/bohr**3)                   (kbar)     P=       -0.14
  -0.00000012  -0.00000000   0.00000000           -0.02       -0.00        0.00
  -0.00000000  -0.00000012   0.00000000           -0.00       -0.02        0.00
   0.00000000   0.00000000  -0.00000259            0.00        0.00       -0.38

     Writing all to output data dir ./tmp/graphene.save/ :
     XML data file, charge density, pseudopotentials, collected wavefunctions

     General routines

   This run was terminated on:  17:57:46   9Sep2025

   JOB DONE.